WARNING: for repeatability, setting FPU to use double precision
============================[ Problem Statistics ]=============================
|                                                                             |
|  Number of variables:           100                                         |
|  Number of clauses:             449                                         |
|  Parse time:                   0.00 s                                       |
|  Eliminated clauses:           0.00 Mb                                      |
|  Simplification time:          0.00 s                                       |
|                                                                             |
============================[ Search Statistics ]==============================
| Conflicts |          ORIGINAL         |          LEARNT          | Progress |
|           |    Vars  Clauses Literals |    Limit  Clauses Lit/Cl |          |
===============================================================================
|       100 |      97      437     1324 |      160      100      9 |  0.010 % |
===============================================================================
restarts              : 2
conflicts             : 125            (57790 /sec)
decisions             : 173            (0.00 % random) (79982 /sec)
propagations          : 2780           (1285252 /sec)
conflict literals     : 1031           (7.78 % deleted)
Memory used           : 13.00 MB
CPU time              : 0.002163 s

SATISFIABLE
